c Generated with `cnfgen`
c (C) 2012-2019 Massimo Lauria <massimo.lauria@uniroma1.it>
c https://massimolauria.net/cnfgen
c
c COMMAND LINE: cnfgen --seed 1 -o ./tseitin/tseitin.grid10.s1.cnf tseitin --grid 10 10 --savegraph ./tseitin/tseitin.grid10.s1.graph --graphformat dot --charge randomeven
c
p cnf 180 648
1 2 0
-1 -2 0
1 3 4 0
1 -3 -4 0
-1 3 -4 0
-1 -3 4 0
3 5 -6 0
3 -5 6 0
-3 5 6 0
-3 -5 -6 0
5 7 -8 0
5 -7 8 0
-5 7 8 0
-5 -7 -8 0
7 9 10 0
7 -9 -10 0
-7 9 -10 0
-7 -9 10 0
9 11 12 0
9 -11 -12 0
-9 11 -12 0
-9 -11 12 0
11 13 14 0
11 -13 -14 0
-11 13 -14 0
-11 -13 14 0
13 15 -16 0
13 -15 16 0
-13 15 16 0
-13 -15 -16 0
15 17 -18 0
15 -17 18 0
-15 17 18 0
-15 -17 -18 0
17 -19 0
-17 19 0
2 20 -21 0
2 -20 21 0
-2 20 21 0
-2 -20 -21 0
4 20 22 -23 0
4 20 -22 23 0
4 -20 22 23 0
4 -20 -22 -23 0
-4 20 22 23 0
-4 20 -22 -23 0
-4 -20 22 -23 0
-4 -20 -22 23 0
6 22 24 -25 0
6 22 -24 25 0
6 -22 24 25 0
6 -22 -24 -25 0
-6 22 24 25 0
-6 22 -24 -25 0
-6 -22 24 -25 0
-6 -22 -24 25 0
8 24 26 -27 0
8 24 -26 27 0
8 -24 26 27 0
8 -24 -26 -27 0
-8 24 26 27 0
-8 24 -26 -27 0
-8 -24 26 -27 0
-8 -24 -26 27 0
10 26 28 -29 0
10 26 -28 29 0
10 -26 28 29 0
10 -26 -28 -29 0
-10 26 28 29 0
-10 26 -28 -29 0
-10 -26 28 -29 0
-10 -26 -28 29 0
12 28 30 -31 0
12 28 -30 31 0
12 -28 30 31 0
12 -28 -30 -31 0
-12 28 30 31 0
-12 28 -30 -31 0
-12 -28 30 -31 0
-12 -28 -30 31 0
14 30 32 33 0
14 30 -32 -33 0
14 -30 32 -33 0
14 -30 -32 33 0
-14 30 32 -33 0
-14 30 -32 33 0
-14 -30 32 33 0
-14 -30 -32 -33 0
16 32 34 35 0
16 32 -34 -35 0
16 -32 34 -35 0
16 -32 -34 35 0
-16 32 34 -35 0
-16 32 -34 35 0
-16 -32 34 35 0
-16 -32 -34 -35 0
18 34 36 -37 0
18 34 -36 37 0
18 -34 36 37 0
18 -34 -36 -37 0
-18 34 36 37 0
-18 34 -36 -37 0
-18 -34 36 -37 0
-18 -34 -36 37 0
19 36 38 0
19 -36 -38 0
-19 36 -38 0
-19 -36 38 0
21 39 40 0
21 -39 -40 0
-21 39 -40 0
-21 -39 40 0
23 39 41 42 0
23 39 -41 -42 0
23 -39 41 -42 0
23 -39 -41 42 0
-23 39 41 -42 0
-23 39 -41 42 0
-23 -39 41 42 0
-23 -39 -41 -42 0
25 41 43 44 0
25 41 -43 -44 0
25 -41 43 -44 0
25 -41 -43 44 0
-25 41 43 -44 0
-25 41 -43 44 0
-25 -41 43 44 0
-25 -41 -43 -44 0
27 43 45 46 0
27 43 -45 -46 0
27 -43 45 -46 0
27 -43 -45 46 0
-27 43 45 -46 0
-27 43 -45 46 0
-27 -43 45 46 0
-27 -43 -45 -46 0
29 45 47 -48 0
29 45 -47 48 0
29 -45 47 48 0
29 -45 -47 -48 0
-29 45 47 48 0
-29 45 -47 -48 0
-29 -45 47 -48 0
-29 -45 -47 48 0
31 47 49 -50 0
31 47 -49 50 0
31 -47 49 50 0
31 -47 -49 -50 0
-31 47 49 50 0
-31 47 -49 -50 0
-31 -47 49 -50 0
-31 -47 -49 50 0
33 49 51 -52 0
33 49 -51 52 0
33 -49 51 52 0
33 -49 -51 -52 0
-33 49 51 52 0
-33 49 -51 -52 0
-33 -49 51 -52 0
-33 -49 -51 52 0
35 51 53 -54 0
35 51 -53 54 0
35 -51 53 54 0
35 -51 -53 -54 0
-35 51 53 54 0
-35 51 -53 -54 0
-35 -51 53 -54 0
-35 -51 -53 54 0
37 53 55 -56 0
37 53 -55 56 0
37 -53 55 56 0
37 -53 -55 -56 0
-37 53 55 56 0
-37 53 -55 -56 0
-37 -53 55 -56 0
-37 -53 -55 56 0
38 55 57 0
38 -55 -57 0
-38 55 -57 0
-38 -55 57 0
40 58 -59 0
40 -58 59 0
-40 58 59 0
-40 -58 -59 0
42 58 60 61 0
42 58 -60 -61 0
42 -58 60 -61 0
42 -58 -60 61 0
-42 58 60 -61 0
-42 58 -60 61 0
-42 -58 60 61 0
-42 -58 -60 -61 0
44 60 62 -63 0
44 60 -62 63 0
44 -60 62 63 0
44 -60 -62 -63 0
-44 60 62 63 0
-44 60 -62 -63 0
-44 -60 62 -63 0
-44 -60 -62 63 0
46 62 64 -65 0
46 62 -64 65 0
46 -62 64 65 0
46 -62 -64 -65 0
-46 62 64 65 0
-46 62 -64 -65 0
-46 -62 64 -65 0
-46 -62 -64 65 0
48 64 66 67 0
48 64 -66 -67 0
48 -64 66 -67 0
48 -64 -66 67 0
-48 64 66 -67 0
-48 64 -66 67 0
-48 -64 66 67 0
-48 -64 -66 -67 0
50 66 68 -69 0
50 66 -68 69 0
50 -66 68 69 0
50 -66 -68 -69 0
-50 66 68 69 0
-50 66 -68 -69 0
-50 -66 68 -69 0
-50 -66 -68 69 0
52 68 70 71 0
52 68 -70 -71 0
52 -68 70 -71 0
52 -68 -70 71 0
-52 68 70 -71 0
-52 68 -70 71 0
-52 -68 70 71 0
-52 -68 -70 -71 0
54 70 72 73 0
54 70 -72 -73 0
54 -70 72 -73 0
54 -70 -72 73 0
-54 70 72 -73 0
-54 70 -72 73 0
-54 -70 72 73 0
-54 -70 -72 -73 0
56 72 74 -75 0
56 72 -74 75 0
56 -72 74 75 0
56 -72 -74 -75 0
-56 72 74 75 0
-56 72 -74 -75 0
-56 -72 74 -75 0
-56 -72 -74 75 0
57 74 76 0
57 -74 -76 0
-57 74 -76 0
-57 -74 76 0
59 77 78 0
59 -77 -78 0
-59 77 -78 0
-59 -77 78 0
61 77 79 -80 0
61 77 -79 80 0
61 -77 79 80 0
61 -77 -79 -80 0
-61 77 79 80 0
-61 77 -79 -80 0
-61 -77 79 -80 0
-61 -77 -79 80 0
63 79 81 -82 0
63 79 -81 82 0
63 -79 81 82 0
63 -79 -81 -82 0
-63 79 81 82 0
-63 79 -81 -82 0
-63 -79 81 -82 0
-63 -79 -81 82 0
65 81 83 -84 0
65 81 -83 84 0
65 -81 83 84 0
65 -81 -83 -84 0
-65 81 83 84 0
-65 81 -83 -84 0
-65 -81 83 -84 0
-65 -81 -83 84 0
67 83 85 86 0
67 83 -85 -86 0
67 -83 85 -86 0
67 -83 -85 86 0
-67 83 85 -86 0
-67 83 -85 86 0
-67 -83 85 86 0
-67 -83 -85 -86 0
69 85 87 88 0
69 85 -87 -88 0
69 -85 87 -88 0
69 -85 -87 88 0
-69 85 87 -88 0
-69 85 -87 88 0
-69 -85 87 88 0
-69 -85 -87 -88 0
71 87 89 -90 0
71 87 -89 90 0
71 -87 89 90 0
71 -87 -89 -90 0
-71 87 89 90 0
-71 87 -89 -90 0
-71 -87 89 -90 0
-71 -87 -89 90 0
73 89 91 92 0
73 89 -91 -92 0
73 -89 91 -92 0
73 -89 -91 92 0
-73 89 91 -92 0
-73 89 -91 92 0
-73 -89 91 92 0
-73 -89 -91 -92 0
75 91 93 94 0
75 91 -93 -94 0
75 -91 93 -94 0
75 -91 -93 94 0
-75 91 93 -94 0
-75 91 -93 94 0
-75 -91 93 94 0
-75 -91 -93 -94 0
76 93 95 0
76 -93 -95 0
-76 93 -95 0
-76 -93 95 0
78 96 -97 0
78 -96 97 0
-78 96 97 0
-78 -96 -97 0
80 96 98 99 0
80 96 -98 -99 0
80 -96 98 -99 0
80 -96 -98 99 0
-80 96 98 -99 0
-80 96 -98 99 0
-80 -96 98 99 0
-80 -96 -98 -99 0
82 98 100 -101 0
82 98 -100 101 0
82 -98 100 101 0
82 -98 -100 -101 0
-82 98 100 101 0
-82 98 -100 -101 0
-82 -98 100 -101 0
-82 -98 -100 101 0
84 100 102 -103 0
84 100 -102 103 0
84 -100 102 103 0
84 -100 -102 -103 0
-84 100 102 103 0
-84 100 -102 -103 0
-84 -100 102 -103 0
-84 -100 -102 103 0
86 102 104 -105 0
86 102 -104 105 0
86 -102 104 105 0
86 -102 -104 -105 0
-86 102 104 105 0
-86 102 -104 -105 0
-86 -102 104 -105 0
-86 -102 -104 105 0
88 104 106 -107 0
88 104 -106 107 0
88 -104 106 107 0
88 -104 -106 -107 0
-88 104 106 107 0
-88 104 -106 -107 0
-88 -104 106 -107 0
-88 -104 -106 107 0
90 106 108 109 0
90 106 -108 -109 0
90 -106 108 -109 0
90 -106 -108 109 0
-90 106 108 -109 0
-90 106 -108 109 0
-90 -106 108 109 0
-90 -106 -108 -109 0
92 108 110 -111 0
92 108 -110 111 0
92 -108 110 111 0
92 -108 -110 -111 0
-92 108 110 111 0
-92 108 -110 -111 0
-92 -108 110 -111 0
-92 -108 -110 111 0
94 110 112 -113 0
94 110 -112 113 0
94 -110 112 113 0
94 -110 -112 -113 0
-94 110 112 113 0
-94 110 -112 -113 0
-94 -110 112 -113 0
-94 -110 -112 113 0
95 112 -114 0
95 -112 114 0
-95 112 114 0
-95 -112 -114 0
97 115 116 0
97 -115 -116 0
-97 115 -116 0
-97 -115 116 0
99 115 117 -118 0
99 115 -117 118 0
99 -115 117 118 0
99 -115 -117 -118 0
-99 115 117 118 0
-99 115 -117 -118 0
-99 -115 117 -118 0
-99 -115 -117 118 0
101 117 119 -120 0
101 117 -119 120 0
101 -117 119 120 0
101 -117 -119 -120 0
-101 117 119 120 0
-101 117 -119 -120 0
-101 -117 119 -120 0
-101 -117 -119 120 0
103 119 121 -122 0
103 119 -121 122 0
103 -119 121 122 0
103 -119 -121 -122 0
-103 119 121 122 0
-103 119 -121 -122 0
-103 -119 121 -122 0
-103 -119 -121 122 0
105 121 123 124 0
105 121 -123 -124 0
105 -121 123 -124 0
105 -121 -123 124 0
-105 121 123 -124 0
-105 121 -123 124 0
-105 -121 123 124 0
-105 -121 -123 -124 0
107 123 125 -126 0
107 123 -125 126 0
107 -123 125 126 0
107 -123 -125 -126 0
-107 123 125 126 0
-107 123 -125 -126 0
-107 -123 125 -126 0
-107 -123 -125 126 0
109 125 127 -128 0
109 125 -127 128 0
109 -125 127 128 0
109 -125 -127 -128 0
-109 125 127 128 0
-109 125 -127 -128 0
-109 -125 127 -128 0
-109 -125 -127 128 0
111 127 129 130 0
111 127 -129 -130 0
111 -127 129 -130 0
111 -127 -129 130 0
-111 127 129 -130 0
-111 127 -129 130 0
-111 -127 129 130 0
-111 -127 -129 -130 0
113 129 131 132 0
113 129 -131 -132 0
113 -129 131 -132 0
113 -129 -131 132 0
-113 129 131 -132 0
-113 129 -131 132 0
-113 -129 131 132 0
-113 -129 -131 -132 0
114 131 -133 0
114 -131 133 0
-114 131 133 0
-114 -131 -133 0
116 134 135 0
116 -134 -135 0
-116 134 -135 0
-116 -134 135 0
118 134 136 137 0
118 134 -136 -137 0
118 -134 136 -137 0
118 -134 -136 137 0
-118 134 136 -137 0
-118 134 -136 137 0
-118 -134 136 137 0
-118 -134 -136 -137 0
120 136 138 139 0
120 136 -138 -139 0
120 -136 138 -139 0
120 -136 -138 139 0
-120 136 138 -139 0
-120 136 -138 139 0
-120 -136 138 139 0
-120 -136 -138 -139 0
122 138 140 -141 0
122 138 -140 141 0
122 -138 140 141 0
122 -138 -140 -141 0
-122 138 140 141 0
-122 138 -140 -141 0
-122 -138 140 -141 0
-122 -138 -140 141 0
124 140 142 143 0
124 140 -142 -143 0
124 -140 142 -143 0
124 -140 -142 143 0
-124 140 142 -143 0
-124 140 -142 143 0
-124 -140 142 143 0
-124 -140 -142 -143 0
126 142 144 -145 0
126 142 -144 145 0
126 -142 144 145 0
126 -142 -144 -145 0
-126 142 144 145 0
-126 142 -144 -145 0
-126 -142 144 -145 0
-126 -142 -144 145 0
128 144 146 -147 0
128 144 -146 147 0
128 -144 146 147 0
128 -144 -146 -147 0
-128 144 146 147 0
-128 144 -146 -147 0
-128 -144 146 -147 0
-128 -144 -146 147 0
130 146 148 -149 0
130 146 -148 149 0
130 -146 148 149 0
130 -146 -148 -149 0
-130 146 148 149 0
-130 146 -148 -149 0
-130 -146 148 -149 0
-130 -146 -148 149 0
132 148 150 151 0
132 148 -150 -151 0
132 -148 150 -151 0
132 -148 -150 151 0
-132 148 150 -151 0
-132 148 -150 151 0
-132 -148 150 151 0
-132 -148 -150 -151 0
133 150 -152 0
133 -150 152 0
-133 150 152 0
-133 -150 -152 0
135 153 154 0
135 -153 -154 0
-135 153 -154 0
-135 -153 154 0
137 153 155 -156 0
137 153 -155 156 0
137 -153 155 156 0
137 -153 -155 -156 0
-137 153 155 156 0
-137 153 -155 -156 0
-137 -153 155 -156 0
-137 -153 -155 156 0
139 155 157 -158 0
139 155 -157 158 0
139 -155 157 158 0
139 -155 -157 -158 0
-139 155 157 158 0
-139 155 -157 -158 0
-139 -155 157 -158 0
-139 -155 -157 158 0
141 157 159 160 0
141 157 -159 -160 0
141 -157 159 -160 0
141 -157 -159 160 0
-141 157 159 -160 0
-141 157 -159 160 0
-141 -157 159 160 0
-141 -157 -159 -160 0
143 159 161 162 0
143 159 -161 -162 0
143 -159 161 -162 0
143 -159 -161 162 0
-143 159 161 -162 0
-143 159 -161 162 0
-143 -159 161 162 0
-143 -159 -161 -162 0
145 161 163 -164 0
145 161 -163 164 0
145 -161 163 164 0
145 -161 -163 -164 0
-145 161 163 164 0
-145 161 -163 -164 0
-145 -161 163 -164 0
-145 -161 -163 164 0
147 163 165 166 0
147 163 -165 -166 0
147 -163 165 -166 0
147 -163 -165 166 0
-147 163 165 -166 0
-147 163 -165 166 0
-147 -163 165 166 0
-147 -163 -165 -166 0
149 165 167 168 0
149 165 -167 -168 0
149 -165 167 -168 0
149 -165 -167 168 0
-149 165 167 -168 0
-149 165 -167 168 0
-149 -165 167 168 0
-149 -165 -167 -168 0
151 167 169 -170 0
151 167 -169 170 0
151 -167 169 170 0
151 -167 -169 -170 0
-151 167 169 170 0
-151 167 -169 -170 0
-151 -167 169 -170 0
-151 -167 -169 170 0
152 169 171 0
152 -169 -171 0
-152 169 -171 0
-152 -169 171 0
154 -172 0
-154 172 0
156 172 -173 0
156 -172 173 0
-156 172 173 0
-156 -172 -173 0
158 173 -174 0
158 -173 174 0
-158 173 174 0
-158 -173 -174 0
160 174 -175 0
160 -174 175 0
-160 174 175 0
-160 -174 -175 0
162 175 -176 0
162 -175 176 0
-162 175 176 0
-162 -175 -176 0
164 176 -177 0
164 -176 177 0
-164 176 177 0
-164 -176 -177 0
166 177 -178 0
166 -177 178 0
-166 177 178 0
-166 -177 -178 0
168 178 179 0
168 -178 -179 0
-168 178 -179 0
-168 -178 179 0
170 179 180 0
170 -179 -180 0
-170 179 -180 0
-170 -179 180 0
171 180 0
-171 -180 0
